\ Model Staff Scheduling Problem with Skill Levels
\ LP format - for model browsing. Use MPS format to capture full model detail.
Minimize
  42.06467259918259 x[0,0] + 42.06467259918259 x[0,1]
   + 42.06467259918259 x[0,2] + 42.06467259918259 x[0,3]
   + 42.06467259918259 x[0,4] + 26.6222695260606 x[1,0]
   + 26.6222695260606 x[1,1] + 26.6222695260606 x[1,2]
   + 26.6222695260606 x[1,3] + 26.6222695260606 x[1,4]
   + 40.52173695528442 x[2,0] + 40.52173695528442 x[2,1]
   + 40.52173695528442 x[2,2] + 40.52173695528442 x[2,3]
   + 40.52173695528442 x[2,4] + 42.51545377037344 x[3,0]
   + 42.51545377037344 x[3,1] + 42.51545377037344 x[3,2]
   + 42.51545377037344 x[3,3] + 42.51545377037344 x[3,4]
   + 48.41271586760652 x[4,0] + 48.41271586760652 x[4,1]
   + 48.41271586760652 x[4,2] + 48.41271586760652 x[4,3]
   + 48.41271586760652 x[4,4] + 32.1599823332687 x[5,0]
   + 32.1599823332687 x[5,1] + 32.1599823332687 x[5,2]
   + 32.1599823332687 x[5,3] + 32.1599823332687 x[5,4]
   + 33.49812593971944 x[6,0] + 33.49812593971944 x[6,1]
   + 33.49812593971944 x[6,2] + 33.49812593971944 x[6,3]
   + 33.49812593971944 x[6,4] + 13.89797199706667 x[7,0]
   + 13.89797199706667 x[7,1] + 13.89797199706667 x[7,2]
   + 13.89797199706667 x[7,3] + 13.89797199706667 x[7,4]
   + 20.28836289019152 x[8,0] + 20.28836289019152 x[8,1]
   + 20.28836289019152 x[8,2] + 20.28836289019152 x[8,3]
   + 20.28836289019152 x[8,4] + 30.46190764207904 x[9,0]
   + 30.46190764207904 x[9,1] + 30.46190764207904 x[9,2]
   + 30.46190764207904 x[9,3] + 30.46190764207904 x[9,4]
   + 43.1436713640078 x[10,0] + 43.1436713640078 x[10,1]
   + 43.1436713640078 x[10,2] + 43.1436713640078 x[10,3]
   + 43.1436713640078 x[10,4] + 12.62857791881854 x[11,0]
   + 12.62857791881854 x[11,1] + 12.62857791881854 x[11,2]
   + 12.62857791881854 x[11,3] + 12.62857791881854 x[11,4]
   + 40.37329548545645 x[12,0] + 40.37329548545645 x[12,1]
   + 40.37329548545645 x[12,2] + 40.37329548545645 x[12,3]
   + 40.37329548545645 x[12,4] + 32.80926469895427 x[13,0]
   + 32.80926469895427 x[13,1] + 32.80926469895427 x[13,2]
   + 32.80926469895427 x[13,3] + 32.80926469895427 x[13,4]
   + 13.1644889067324 x[14,0] + 13.1644889067324 x[14,1]
   + 13.1644889067324 x[14,2] + 13.1644889067324 x[14,3]
   + 13.1644889067324 x[14,4] + 32.95214067040966 x[15,0]
   + 32.95214067040966 x[15,1] + 32.95214067040966 x[15,2]
   + 32.95214067040966 x[15,3] + 32.95214067040966 x[15,4]
   + 21.04359101961384 x[16,0] + 21.04359101961384 x[16,1]
   + 21.04359101961384 x[16,2] + 21.04359101961384 x[16,3]
   + 21.04359101961384 x[16,4] + 44.28490519172357 x[17,0]
   + 44.28490519172357 x[17,1] + 44.28490519172357 x[17,2]
   + 44.28490519172357 x[17,3] + 44.28490519172357 x[17,4]
Subject To
 shift_0_requirement: x[0,0] + x[1,0] + x[2,0] + x[3,0] + x[4,0] + x[5,0]
   + x[6,0] + x[7,0] + x[8,0] + x[9,0] + x[10,0] + x[11,0] + x[12,0]
   + x[13,0] + x[14,0] + x[15,0] + x[16,0] + x[17,0] >= 1
 shift_1_requirement: x[0,1] + x[1,1] + x[2,1] + x[3,1] + x[4,1] + x[5,1]
   + x[6,1] + x[7,1] + x[8,1] + x[9,1] + x[10,1] + x[11,1] + x[12,1]
   + x[13,1] + x[14,1] + x[15,1] + x[16,1] + x[17,1] >= 1
 shift_2_requirement: x[0,2] + x[1,2] + x[2,2] + x[3,2] + x[4,2] + x[5,2]
   + x[6,2] + x[7,2] + x[8,2] + x[9,2] + x[10,2] + x[11,2] + x[12,2]
   + x[13,2] + x[14,2] + x[15,2] + x[16,2] + x[17,2] >= 1
 shift_3_requirement: x[0,3] + x[1,3] + x[2,3] + x[3,3] + x[4,3] + x[5,3]
   + x[6,3] + x[7,3] + x[8,3] + x[9,3] + x[10,3] + x[11,3] + x[12,3]
   + x[13,3] + x[14,3] + x[15,3] + x[16,3] + x[17,3] >= 1
 shift_4_requirement: x[0,4] + x[1,4] + x[2,4] + x[3,4] + x[4,4] + x[5,4]
   + x[6,4] + x[7,4] + x[8,4] + x[9,4] + x[10,4] + x[11,4] + x[12,4]
   + x[13,4] + x[14,4] + x[15,4] + x[16,4] + x[17,4] >= 1
 availability_0_0: x[0,0] <= 100
 availability_0_1: x[0,1] <= 100
 availability_0_2: x[0,2] <= 100
 availability_0_3: x[0,3] <= 100
 availability_0_4: x[0,4] <= 100
 availability_1_0: x[1,0] <= 100
 availability_1_1: x[1,1] <= 100
 availability_1_2: x[1,2] <= 100
 availability_1_3: x[1,3] <= 100
 availability_1_4: x[1,4] <= 100
 availability_2_0: x[2,0] <= 100
 availability_2_1: x[2,1] <= 100
 availability_2_2: x[2,2] <= 100
 availability_2_3: x[2,3] <= 100
 availability_2_4: x[2,4] <= 100
 availability_3_0: x[3,0] <= 100
 availability_3_1: x[3,1] <= 100
 availability_3_2: x[3,2] <= 100
 availability_3_3: x[3,3] <= 100
 availability_3_4: x[3,4] <= 100
 availability_4_0: x[4,0] <= 100
 availability_4_1: x[4,1] <= 100
 availability_4_2: x[4,2] <= 100
 availability_4_3: x[4,3] <= 100
 availability_4_4: x[4,4] <= 100
 availability_5_0: x[5,0] <= 100
 availability_5_1: x[5,1] <= 100
 availability_5_2: x[5,2] <= 100
 availability_5_3: x[5,3] <= 100
 availability_5_4: x[5,4] <= 100
 availability_6_0: x[6,0] <= 100
 availability_6_1: x[6,1] <= 100
 availability_6_2: x[6,2] <= 100
 availability_6_3: x[6,3] <= 100
 availability_6_4: x[6,4] <= 100
 availability_7_0: x[7,0] <= 100
 availability_7_1: x[7,1] <= 100
 availability_7_2: x[7,2] <= 100
 availability_7_3: x[7,3] <= 100
 availability_7_4: x[7,4] <= 100
 availability_8_0: x[8,0] <= 100
 availability_8_1: x[8,1] <= 100
 availability_8_2: x[8,2] <= 100
 availability_8_3: x[8,3] <= 100
 availability_8_4: x[8,4] <= 100
 availability_9_0: x[9,0] <= 100
 availability_9_1: x[9,1] <= 100
 availability_9_2: x[9,2] <= 100
 availability_9_3: x[9,3] <= 100
 availability_9_4: x[9,4] <= 100
 availability_10_0: x[10,0] <= 100
 availability_10_1: x[10,1] <= 100
 availability_10_2: x[10,2] <= 100
 availability_10_3: x[10,3] <= 100
 availability_10_4: x[10,4] <= 100
 availability_11_0: x[11,0] <= 100
 availability_11_1: x[11,1] <= 100
 availability_11_2: x[11,2] <= 100
 availability_11_3: x[11,3] <= 100
 availability_11_4: x[11,4] <= 100
 availability_12_0: x[12,0] <= 100
 availability_12_1: x[12,1] <= 100
 availability_12_2: x[12,2] <= 100
 availability_12_3: x[12,3] <= 100
 availability_12_4: x[12,4] <= 100
 availability_13_0: x[13,0] <= 100
 availability_13_1: x[13,1] <= 100
 availability_13_2: x[13,2] <= 100
 availability_13_3: x[13,3] <= 100
 availability_13_4: x[13,4] <= 100
 availability_14_0: x[14,0] <= 100
 availability_14_1: x[14,1] <= 100
 availability_14_2: x[14,2] <= 100
 availability_14_3: x[14,3] <= 100
 availability_14_4: x[14,4] <= 100
 availability_15_0: x[15,0] <= 100
 availability_15_1: x[15,1] <= 100
 availability_15_2: x[15,2] <= 100
 availability_15_3: x[15,3] <= 100
 availability_15_4: x[15,4] <= 100
 availability_16_0: x[16,0] <= 100
 availability_16_1: x[16,1] <= 100
 availability_16_2: x[16,2] <= 100
 availability_16_3: x[16,3] <= 100
 availability_16_4: x[16,4] <= 100
 availability_17_0: x[17,0] <= 100
 availability_17_1: x[17,1] <= 100
 availability_17_2: x[17,2] <= 100
 availability_17_3: x[17,3] <= 100
 availability_17_4: x[17,4] <= 100
 shift_0_skill_requirement: 10 x[0,0] + 10 x[1,0] + 10 x[2,0] + 10 x[3,0]
   + 10 x[4,0] + 10 x[5,0] + 10 x[6,0] + 10 x[7,0] + 10 x[8,0] + 10 x[9,0]
   + 10 x[10,0] + 10 x[11,0] + 10 x[12,0] + 10 x[13,0] + 10 x[14,0]
   + 10 x[15,0] + 10 x[16,0] + 10 x[17,0] >= 1
 shift_1_skill_requirement: 10 x[0,1] + 10 x[1,1] + 10 x[2,1] + 10 x[3,1]
   + 10 x[4,1] + 10 x[5,1] + 10 x[6,1] + 10 x[7,1] + 10 x[8,1] + 10 x[9,1]
   + 10 x[10,1] + 10 x[11,1] + 10 x[12,1] + 10 x[13,1] + 10 x[14,1]
   + 10 x[15,1] + 10 x[16,1] + 10 x[17,1] >= 1
 shift_2_skill_requirement: 10 x[0,2] + 10 x[1,2] + 10 x[2,2] + 10 x[3,2]
   + 10 x[4,2] + 10 x[5,2] + 10 x[6,2] + 10 x[7,2] + 10 x[8,2] + 10 x[9,2]
   + 10 x[10,2] + 10 x[11,2] + 10 x[12,2] + 10 x[13,2] + 10 x[14,2]
   + 10 x[15,2] + 10 x[16,2] + 10 x[17,2] >= 1
 shift_3_skill_requirement: 10 x[0,3] + 10 x[1,3] + 10 x[2,3] + 10 x[3,3]
   + 10 x[4,3] + 10 x[5,3] + 10 x[6,3] + 10 x[7,3] + 10 x[8,3] + 10 x[9,3]
   + 10 x[10,3] + 10 x[11,3] + 10 x[12,3] + 10 x[13,3] + 10 x[14,3]
   + 10 x[15,3] + 10 x[16,3] + 10 x[17,3] >= 1
 shift_4_skill_requirement: 10 x[0,4] + 10 x[1,4] + 10 x[2,4] + 10 x[3,4]
   + 10 x[4,4] + 10 x[5,4] + 10 x[6,4] + 10 x[7,4] + 10 x[8,4] + 10 x[9,4]
   + 10 x[10,4] + 10 x[11,4] + 10 x[12,4] + 10 x[13,4] + 10 x[14,4]
   + 10 x[15,4] + 10 x[16,4] + 10 x[17,4] >= 1
Bounds
End
